20 64 
1 5 1
1 6 1
1 7 1
1 9 1
1 11 1
1 12 1
1 15 1
2 5 1
2 6 1
2 7 1
2 9 1
2 14 1
2 17 1
2 19 1
3 5 1
3 6 1
3 7 1
3 8 1
3 13 1
3 18 1
4 5 1
4 7 1
4 9 1
4 10 1
4 15 1
4 17 1
4 19 1
5 6 1
5 8 1
5 10 1
5 11 1
5 14 1
5 16 1
6 8 1
6 9 1
6 13 1
6 15 1
6 16 1
6 19 1
6 20 1
7 8 1
7 10 1
7 12 1
8 11 1
8 12 1
8 14 1
9 10 1
9 11 1
9 13 1
9 14 1
9 18 1
10 17 1
10 18 1
11 12 1
11 15 1
11 16 1
11 18 1
12 13 1
13 16 1
14 17 1
15 19 1
15 20 1
16 20 1
17 20 1
